objective value:                               -80463
t_x3753                                             1 	(obj:-667)
t_x3756                                             1 	(obj:-501)
t_x3759                                             1 	(obj:-494)
t_x3762                                             1 	(obj:-797)
t_x3765                                             1 	(obj:-315)
t_x3768                                             1 	(obj:-591)
t_x3771                                             1 	(obj:-103)
t_x3774                                             1 	(obj:-743)
t_x3777                                             1 	(obj:-553)
t_x3780                                             1 	(obj:-512)
t_x3783                                             1 	(obj:-163)
t_x3786                                             1 	(obj:-98)
t_x3789                                             1 	(obj:-123)
t_x3792                                             1 	(obj:-288)
t_x3795                                             1 	(obj:-400)
t_x3798                                             1 	(obj:-564)
t_x3801                                             1 	(obj:-236)
t_x3804                                             1 	(obj:-603)
t_x3807                                             1 	(obj:-794)
t_x3810                                             1 	(obj:-465)
t_x3813                                             1 	(obj:-753)
t_x3816                                             1 	(obj:-176)
t_x3819                                             1 	(obj:-882)
t_x3822                                             1 	(obj:-324)
t_x3825                                             1 	(obj:-61)
t_x3828                                             1 	(obj:-210)
t_x3831                                             1 	(obj:-820)
t_x3834                                             1 	(obj:-829)
t_x3837                                             1 	(obj:-445)
t_x3840                                             1 	(obj:-125)
t_x3843                                             1 	(obj:-727)
t_x3846                                             1 	(obj:-480)
t_x3849                                             1 	(obj:-303)
t_x3852                                             1 	(obj:-502)
t_x3855                                             1 	(obj:-458)
t_x3858                                             1 	(obj:-397)
t_x3861                                             1 	(obj:-676)
t_x3864                                             1 	(obj:-605)
t_x3867                                             1 	(obj:-392)
t_x3870                                             1 	(obj:-612)
t_x4034                                             1 	(obj:-1189)
t_x4036                                             1 	(obj:-564)
t_x4038                                             1 	(obj:-554)
t_x4040                                             1 	(obj:-1936)
t_x4042                                             1 	(obj:-1912)
t_x4044                                             1 	(obj:-159)
t_x4046                                             1 	(obj:-320)
t_x4048                                             1 	(obj:-1237)
t_x4050                                             1 	(obj:-718)
t_x4052                                             1 	(obj:-1860)
t_x4054                                             1 	(obj:-542)
t_x4056                                             1 	(obj:-256)
t_x4058                                             1 	(obj:-1657)
t_x4060                                             1 	(obj:-594)
t_x4062                                             1 	(obj:-686)
t_x4064                                             1 	(obj:-261)
t_x4066                                             1 	(obj:-1328)
t_x4068                                             1 	(obj:-1879)
t_x4070                                             1 	(obj:-772)
t_x4072                                             1 	(obj:-384)
t_x4074                                             1 	(obj:-791)
t_x4076                                             1 	(obj:-26)
t_x4078                                             1 	(obj:-603)
t_x4080                                             1 	(obj:-632)
t_x4082                                             1 	(obj:-1115)
t_x4084                                             1 	(obj:-962)
t_x4086                                             1 	(obj:-619)
t_x4088                                             1 	(obj:-1525)
t_x4090                                             1 	(obj:-546)
t_x4092                                             1 	(obj:-1677)
t_x4094                                             1 	(obj:-378)
t_x4096                                             1 	(obj:-358)
t_x4098                                             1 	(obj:-1295)
t_x4100                                             1 	(obj:-303)
t_x4102                                             1 	(obj:-665)
t_x4104                                             1 	(obj:-84)
t_x4106                                             1 	(obj:-1963)
t_x4108                                             1 	(obj:-808)
t_x4110                                             1 	(obj:-1218)
t_x4112                                             1 	(obj:-831)
t_x4114                                             1 	(obj:-1577)
t_x4116                                             1 	(obj:-324)
t_x4268                                             1 	(obj:-7519)
t_x4272                                             1 	(obj:-9670)
t_x4276                                             1 	(obj:-2052)
t_x4753                                             1 	(obj:-783)
t_x4756                                             1 	(obj:-1998)
t_x4759                                             1 	(obj:-2034)
t_x4762                                             1 	(obj:-204)
t_x4764                                             1 	(obj:-308)
